15
8 35 33 36 38 42 22 28 30 36 0 27 37 23 
28 39 37 19 31 1 26 17 35 30 48 27 20 
12 37 26 38 45 35 45 30 47 36 1 24 
41 37 50 42 48 22 20 36 8 13 42 
9 39 8 18 43 31 20 12 43 6 
12 5 1 21 24 5 17 35 7 
16 50 18 15 41 16 37 35 
26 45 49 17 29 11 0 
47 4 31 16 41 23 
48 28 28 23 49 
2 28 41 11 
35 6 10 
3 21 
7